p edge 25 37
e 1 22
e 1 25
e 2 11
e 3 5
e 3 13
e 3 14
e 3 20
e 3 21
e 3 25
e 4 6
e 4 25
e 5 19
e 5 25
e 6 7
e 6 10
e 6 16
e 6 19
e 6 21
e 7 13
e 9 11
e 9 19
e 9 21
e 9 22
e 10 16
e 12 17
e 12 18
e 14 20
e 14 23
e 15 17
e 15 18
e 15 23
e 16 20
e 16 24
e 17 18
e 18 19
e 20 25
e 21 25
